
 102   30
  10   10   10   10   10   10   10   10   10   10   10   10   10   10   10   10   10   10   10   10   10   10   10   10   10   10   10   10   10   10

   0   0   0   0   0   0   0   0   0   0   0   0   0   0   0   0   0   0   0   0   0   0   0   0   0   0   0   0   0   0   0  27 2 3 4 5 6 7 8 9 10 11 12 13 14 15 16 17 18 20 22 23 24 25 26 30 34 44 46 
   7   1   3   0   1   0   0   0   0   1   0   0   0   0   0   0   0   0   0   0   0   0   0   0   0   0   0   0   0   0   0  17 101 60 59 55 54 49 47 45 42 41 39 36 35 33 31 29 21 
  10   0   0   0   0   0   0   0   0   0   0   0   0   0   0   0   0   0   0   0   0   0   0   0   0   0   0   0   0   0   0  17 101 65 59 58 55 54 49 43 42 41 40 39 36 35 32 29 27 
   5   0   0   0   0   0   0   0   0   0   0   1   0   0   0   5   0   0   0   0   0   0   0   0   0   0   1   0   2   0   6  11 100 54 52 51 49 45 42 39 35 33 21 
   3   0   0   0   0   1   1   0   0   0   0   0   0   0   0   0   1   0   0   0   0   0   0   0   0   0   0   0   0   0   0  10 101 99 96 65 55 54 50 40 35 19 
  10   0   0   0   0   9   0   6   1   0   0   0   0   0   0   0   0   1   0   0   1   0   0   0   0   0   0   0   0   0   3  17 99 97 96 64 63 62 56 55 54 51 50 48 45 43 40 31 27 
   8   0   0   1   0   0   0   0   0   0   0   8   1   0   0   0   0   0   0   0   0   0   0   0   0   0   7   0   6   0   0  18 101 99 98 97 92 70 68 63 59 57 56 55 53 51 48 45 40 28 
  10   0   0   0   0   6   0   0   5   0   2   7   0   0   1   0   0   0   0   0   0   0   0   0   0   0   0   0   0   0   0  19 101 99 97 95 92 88 70 68 64 63 59 58 57 55 48 45 42 38 28 
   9   0   0   0   0   0   0   4   0   0   0   0   0   0   6   0   0   7   0   0   0   0   0   0   0   0   0   0   0   0   0  17 100 71 70 59 58 56 55 54 52 50 49 48 45 42 39 38 33 
   2   0   0   6   0   0   0   0   4   0   0   0   0   0   0   0   0   0   0   0   0   1   0   0   0   0   0   2   0   0   0  12 100 98 92 57 56 55 51 42 37 33 32 28 
   7   0   5   0   0   0   6   0   7   0   0   0   0   0   0   0   0   0   0   0   0   0   0   0   0   0   0   0   0   0   0  19 101 99 97 96 94 92 71 70 69 68 64 55 53 51 50 49 48 40 38 
   3   0   0   0   6   0   0   0   0   0   6   0   0   0   0   0   0   0   0   0   0   0   0   0   0   0   0   0  10   0   5  12 101 100 96 69 54 53 51 48 43 41 33 27 
   1   0   0   4   0   0   0   0   0   0   0   0   0   0   0   0   0   0   0   1   0   0   1   0   0   1   0   0   0   0   0  17 99 97 95 94 71 68 61 60 58 56 55 54 53 50 47 40 32 
   9   0   5   0   0   0   0   0   0   0   0   0   0   0   0   4   0   0   0   0   0   0   0   0   0   0   0   0   0   0   0  21 101 97 96 94 93 91 86 85 84 71 70 68 65 64 63 58 55 54 53 48 31 
   4   0   0   0   0   0   0   0   8   9   0   0   0   0   0   0   0   0   0   0   0   8   6   4   0   8   0   0   0   0   0  21 100 99 98 95 94 90 86 84 82 79 71 70 69 63 61 57 54 53 52 48 39 
   5   6   0   0   0   0   0   0   0   0   0   0   4   0   9   0   0   0   0   0   6   0   0   0   0   0   0   0   0   0   0  13 100 97 93 90 88 69 59 54 52 49 48 41 27 
   9   5   0   0   0   0   8   0   0   0   0   0   0   0   0   0   0   7   0   0   0   0   3   0   0   0   0   0   0   1   0  19 96 94 92 86 70 68 66 65 63 62 61 60 57 56 55 53 51 50 40 
   9   0   0   8   0   0   0   0   0   7   0   0   5   3   0   0   0   0   0   0   0   0   0   0   1   0   0   0   5   9   9  17 101 100 97 96 93 89 85 70 68 62 54 52 51 49 47 45 38 
   6   0   0   0   0   0   0   4   0   9   0   5   0   0   0   0   0   0   1   3   0   0   0   0   0   7   0   0   0   5   5  15 97 95 92 69 68 63 62 58 57 53 52 48 45 42 38 
  10   9   0   0   0   0   0   0   0   0   0   0   0   0   0   8   7   0   0   0   9   0   0   2   0   6   0   0   0   0   0  13 100 96 94 93 85 69 65 58 54 52 45 41 38 
   8   0   0   0   0   0   0   0   0   0   0   5   0   0   9   4   0   0   0   7   0   4   0   0   0   0   0   0   0   0   0  12 97 96 92 70 69 68 64 57 53 50 48 38 
   7   0   3   0   0   5   0   0   0   3   0   0   0   0   0   0   0   7   0   0   0   6   0   0   0   0   0   0   0   6   0  21 101 100 99 96 93 92 87 86 83 82 81 80 79 78 77 70 67 66 62 61 51 
   9   0   0   0   0   0   0   0   0   0   6   0   0   0   0   0   0   0   0   0   0   0   0   8   0   0   0   9   0   4   5  20 101 97 96 92 90 88 86 85 83 81 78 75 71 68 67 66 63 62 61 55 
   1   6   0   0   0   0   0   0   8   0   0   0   0   0   0   0   0   0   0   0   0   0   0   0   9   0   4   5   0   0   0  18 98 94 93 92 87 86 82 81 80 79 78 77 71 70 67 66 62 51 
   4   0   0   8   0   0   0  10   0   0   0   0   0   3   0   0   0   0   0   0   0   0   0   0   0   0   0   0   0   0   0  18 99 97 95 94 92 91 90 89 87 86 79 77 69 68 67 66 63 53 
   1   0   0   0   0   0   0   5   0   0   0   0   7   5   0   6   9   0   0   0   0   8   0   0   4   0   0   0   0   0   0  16 99 97 96 93 89 86 85 82 80 73 72 69 66 55 54 53 
   1   0   0   0   0   0   0   6   0   0   0   0   0   0   0   0   0   9   0   0   0   0   0   0   0   6   0   0   0   0   5  23 98 95 94 92 91 89 87 86 85 84 83 81 80 79 78 77 76 75 71 70 68 67 61 
   9   0   0   0   0   0   0   0   0   0   0   0   0   0   8   0   0   0   2  10   0   0   0   6   0   4   0   0   0   0   0  16 96 94 93 89 86 81 80 79 76 75 71 69 67 61 52 50 
   3   0   7   0   0   0   0   6   0   0   0   6   0   7   0   0   0   0   0   0   0   9   8   0   0   0   0   0   0   0   0  14 94 92 89 85 84 83 82 81 79 69 67 66 52 51 
   3   4   0   0   0   8   0   0   0   0   0   0   8   0   0   0   7   0   0   0   0   0   0   0   0   0   0   6   0   0   2  16 97 96 94 93 92 90 83 82 80 79 78 73 70 68 66 53 
   5   0   0   0   0   0   0   0   0   0   0   0   0   0   7   0   0   0   0   0   0   0   0   0   0   0   0   0   0   0   0  15 100 95 92 90 89 88 87 82 80 79 76 75 69 67 52 
   5   0   7   0   7   0   0   0   0   2   0   0   0   0   0   0   0   0   0   0   0   0   0   0   0   0   0   0   0   0   0  11 90 87 86 85 83 81 80 79 69 67 48 
   2   0   0   8   0   0   0   0   0   0   0   0   9   0   3   0   0   0   0   0   0   0   0   0   0   0   0  10   0   0   0  13 99 97 93 91 88 79 78 77 75 73 68 66 62 
   3   0   8   0   0   0   0   0   0   0   0   0   0   0   6   0   2   0   0   0   0   0   0   0   0   0   0   8   0   0   0  10 96 94 90 89 81 79 76 70 67 50 
   8   9   0   8   0   0   0   0   0   0   0   0   0   5   0   0   0   0   0   0   3   0   0   0   0   0   0   0   0   0   6  12 98 90 86 85 83 79 75 72 71 69 67 66 
   9   0   0   0   0   0   0   0   0   0   0   0   0   0   0   0   0   0   0   0   0   0   0   0   0   0   0   0   0   0   0  11 91 85 84 81 80 77 75 70 69 68 67 
   3   0   0   0   0   6   0   0   0   0   0   8   0   0   8   0   0   0   0   0   0   0   0   0   0   0   0   0   0   0   0   9 89 86 84 83 79 72 67 66 53 
  10   0   0   0   0   0   0   0   0   0   0   0   0   0   8   0   0   9   0   0   0   5   8   0   0   0   0   0   0   0   4  11 98 91 90 86 80 79 77 72 67 66 61 
   2   0   0   0   0   0   0   0   0   0   0   0   0   0   0   0   0   0   0  10   0   0   0   0   0   0   0   0   0   0   0  11 97 96 91 88 87 85 81 80 77 68 67 
  10   0   0   0   0   0   0   0   0   5   9   0   0   6   0   0   7   0   0   0   0   0   0   0   0   0   0   0   0   0   0   9 100 93 91 89 85 82 78 75 52 
   1   0   0   0   3   0   0   7   0   0   0   6   0   0   0   0   0   0   0   0   0   0   0   0   0   0   0   0   0   0   0   9 99 92 82 81 80 79 73 68 62 
  10   4   0   0   0   0   6   0   0   7   0   0   0   0   0   0   0  10   0   0   0   0   0   0   9   0   0   0   0   0   0  11 94 93 85 84 83 82 80 78 75 73 72 
   4   3   0   0   0   0   0   7   0   0   0   0   0   0   7   0   0   8   0   6   6   0   0   0   0   0   0   0   0   0   0  10 95 94 93 88 86 83 77 74 73 66 
   2   0   0   0   0   0   0   0   0   0   0   0   0   0   3   0   0   7   0   0   0   0   0   0   0   0   0   0   0   0   0  10 92 88 86 85 84 82 80 77 76 70 
  10   0   0   0   0   0   0   0   0   0   0   7   0   0   0   0   0   4   0   7   0   0   8   0   0   0   0   0   0   0   0  10 86 83 81 80 79 78 75 74 73 72 
   5   0   0   0   0   0   0   0   4   0   0   0   0   0   0   0   0   0   0   0   0   4   0   0   0   0   6   0   5   0  10   8 87 84 82 77 76 73 72 69 
   4   0   3   0   0   0   6   0   0   0   0   0   0   0   0  10   0   0   0   6   0   0   0   0   0   0   0   0   0   0   4   8 90 87 82 77 75 74 73 72 
  10   6   0   0   0   0   0   6   0   0   0   0   0   0   0   0   2   0   0   0   0   0   0   0   0   0   0   0   0   0   0   6 89 78 75 74 73 66 
   9   0   0   3   0   4   0   0   0   0   0   6   0   0   0   0   0   3   0   0   0   0   0   0   5   0   0   0   0   0   0   6 91 77 74 73 72 66 
   9   0   0   4   0   8   0   0   0   0   0   0   0   0   0   0   0   0   7   0   0   0   0   0   0   0   3   0   0   0   0   6 85 84 83 82 78 72 
   6   0   0   0   0   0   0   0   0   0  10   0   0   0   0   0   0   0   0   3   0   5   0   0   0   0   0   0   0  10   0   6 95 91 90 88 75 72 
   7   0   0   0   0   0   5   6   0   0   0   0   0   0   0   0   8   0   0   0   0   0   0   0   0   0   0   0   0   0   0   4 77 74 73 72 
   4   0   0   7   0   0   5   0   0   0   0   0  10   0   0   0   0   0   0   0  10   0   0   7   0   6   0   0   3   0   0   4 88 81 75 74 
   8   0   0   0   0   0   0   0   0   0   0   0   0   0   0   0   0   0   0   0   0   0   0   0   0   0   0   0   0   0   0   4 92 83 81 74 
  10   0   0   0   0   0   0   5   0   0   0   5   4   0   0   0   0   0   0   0   0   0   0   6   0   0   8   0   0   0   0   4 87 79 77 76 
   5   9   0   0   0   0   0   0   9   0   0   0   0   0   0   0   0   0   0   9   0   8   0   0   0   0   0   0   0   0   0   4 82 80 77 75 
   3   0   0   0   0   6   0   0   0   0   0   0   0   7   0   0   0   0  10   0   0   0   0   0   0   0   0   0   0   0   7   3 93 91 87 
  10   0   0   0   6   7   0   0   0   0   0   0   7   0   0   0   0   0   0   0   0   0   0   0   0   0   8   0   7   0   0   3 89 79 74 
   2   0   0   5   0   0   0   0   0   0   0   0   6   0   0   7   9   0   0   7   0   0   6   0   0   0   0   0   0   0   0   3 89 76 72 
   8   0   0   0   0   0   0   0   0   0   0   0   0   0   0   0   0   0   0   3   0   0   0   0   0   0   8   0   0   0   0   3 85 75 72 
  10   0   0   0   0   0   0   0   0   0   0   0   0   0   5   0   0   0  10   0   0   7   0   0   0   0   8   0   0   0   0   2 74 73 
  10   0   0   0   0   0   0   0   0   0   0   5   0   8   0   0   0   0   0   0   0   0   0   0   0   0   3   0   0   0   0   2 84 72 
   5   0   0   0   0   0   0   0   0   0   0   0   0   0   4   0   0   0   0   0   0   0   0   0   5   0   0   0   0   0   0   2 80 72 
   7   0   0   0   0   0   8   0   0   0   0   0   0   0   0   0   0   8   0   0   0   0   0   0   0   0   0   0   0   0   0   2 75 73 
   6   0   0   0   0   0   0   6   0   0   6   0   8   0   6   0   0   0   0   0   0   0   0   0  10   0   0   0   0   0  10   2 87 79 
   6   0   0   0   0   0   0   0   0   0   0   0   0   0   0   0   0   0   0   0   0   0   0   0   0   0   0   6   0   0   0   1 76 
   2   0   0   0   9   0   0   0   0   0   0   0   0   0   0   0   0   0   0   0   0   0   0   0   0   0   0   0   0   7   0   1 73 
   8   0   4   0   0   0   0   0   0   0   0   0   0   0   0   0   0   0   6   0   0   0   0   0   0   0   0   0   0   0   0   1 74 
   5   0  10   8   0   0   0   0   0   0   0   0   0   0   0   0   0   0   0   0   0   0   0   0   0   0   0   0   6   0   0   1 78 
  10   0   0   0   0   0   3   0   0   0   0   0   0   7   0   0   0   0   6   0   0   0   0   0   0   0   0   0   0   0   0   1 72 
  10   8   0   0   0   0   0   0   0   0   0   9   0   0   0   0   0   0   0   0   0   0   0   0   0   0   0   0   0   0   0   1 74 
  10   7   0   0   0   0  10   0   0   0   0   4   0   0   0   0   0   0   5   0   0   0   0   0   0   0   0   0   0   0   0   1 102
   4   0   6   0   0   0   9   0   3   0   0   9   0   5   0   0   0   0   0   0   0   0   0   0   0   0  10   0   0   0   0   1 102
   1   0   5   0   0   0   5   0   0   0   0   0   0   0   0   0   0   4   0   0   0   0   0   7   0   0   0   0   0   0   0   1 102
   8   0   0   0   0   0   0   0   0  10   0   0   0   0   0   0   0   0   0   0   0   0   4  10   0   8   0   5   0   0   0   1 102
   6   0   0   0   5   0   0   0   0   0   0   0   0   0   0   0   7   0   0   8   0   0   0   0   0   0   0   0   0   0   0   1 102
   7   4   0   0   0   0   0   0   0   0   0   7   0   0   0   0   0   4   0   0   0   0   0   0   0   0   0   0   0   0   7   1 102
   5   0   0   0   0   0   0   7   0   0   6   0   0   0   0   0   8   5   8   0   0   0   0   0   0   6   0   0   0   0   0   1 102
   4   0   8   0   0   0   0   0   0   0   0   0   0   0   0   0   0   0   0   0   0   0   0   0   0   0   0   0   9   0   0   1 102
   5   9   0   0   0   0   0   0   0   0   0   0   0   0   0   0   0   0   0  10   0   0   0   0   0   0   0   2   0   5   0   1 102
   2   0   0   0   0   0   0   7   0   0   0   0   4   0   0   4   0   5   0   0   0   0   0   0   0   6   0   0   0   0   0   1 102
   6   0   0   0   0   0   0   0   0   5   0   0   0   0   0   0   0   0   0   0   0   0   0   0   4   0   0   0   0   8   0   1 102
  10   0   0   0   0   0   0   0   0   9   0   0   5   0   0   0   0   0   0   2   0   0   0   0   0   0   0   0   0   0   0   1 102
   4   0   0   0   7   0   0   0   7   0   3   0   0   6   0   0   0   0   0   0   0   0   0   5   9   0   0   0   0   0   0   1 102
   8   0   0   0   0   6   0   0   0   0   0   0   0   0   0   0   8   0   0   0   0   0   0   0   0   7   0   0   7   5   5   1 102
   9   0   0   0   0   0   0   0   0   0   5   0   0   0   0   0   0   0   0   0   0   0   0   0   0   0   0   0   0   0   0   1 102
   7   0   0   0   0   0   0   0   0   0   0   0   0   0   0   7   0   4   0   0   0   6   6   5   0   0   0   0   0   0   0   1 102
   9   0   0   0   0   0   0   2   7   0   0   0   0   0   0   0   0   0   0   0   6   0   5   0   0   0   0   0   0   0   0   1 102
   3   0   0   0   0   0   0   0   0   0   7   0   0   0   0   5   3   0   0   0   5   0  10   0   0   0   0   0   0   9   6   1 102
   9   0   0   0   0   0   0   0   6   0   0   0   0   0   0   0   0   0   0   0   5   0   0   0   0   0   0   7   0   3   0   1 102
   9   0   0   8   0   0   0   0   0   0   0   0   0   0   0   0   0   0   5   4   0   6   0   0   0   0   0   0   0   0   9   1 102
   5   0   0   0   0   0   0   0   0   0   0   5   0   0   0   0   0   0   0   0   0   7   0   0   0   0   0   0   0   0   0   1 102
   6   0   0   0   8   0   0   6   9   0   0   0   0   0   0   0   0   0   0   0   0   0   0   0   0   0   0   0   0   0   0   1 102
   9   0   0   0   0   0   0   0   0   0   0   0   0   0   0   0   0   0   0   0   0   0   0   0   0   0   0   0   0   0   0   1 102
   9   0   0   0   0   0   0   0   3   0   0   0   0   0   0   0   0   0   0   0   9   0   0   0   0   0   0   0   0   0   0   1 102
   1   0   0   0   0   6   0   0   0   0   0   0   0  10   0   0   0   0   0   0   0   0   0   0   5   7   0   0   6   0   0   1 102
  10   0   0   6   9   0   0   0   9   0   0   0   0   0   0   0   0   0   0   0   0   0   0   0   0   0   0   0   0   0   0   1 102
   7   0   0   0   0   0   0   0   0   0   0   5   0   0   0   0   0   0   0   0   0   0   0   0   0   0   0   0   0   0   0   1 102
   5   0  10   0   0   0   0   0   0   0   0   0   0   0   0   0   0   6   0   0   0   0   7   0   0   0   0   0   0   0   0   1 102
   9   0   0   0   0   0   0   7   0   0   0   0   0   0   0   0   0   0   0   0   0   0   0   0   5   0   0   0   0   0   0   1 102
   8   0   0   0   5   0   0   7   0   5   0   0   0   0   0   0   0   0   0   0   0   0   0   0   0   0   0   0   0   0   0   1 102
   0   0   0   0   0   0   0   0   0   0   0   0   0   0   0   0   0   0   0   0   0   0   0   0   0   0   0   0   0   0   0   0 
